c Sudoku solution
p cnf 729 0
166 0
184 0
199 0
233 0
257 0
345 0
371 0
421 0
437 0
476 0
513 0
532 0
555 0
625 0
634 0
698 0
717 0
788 0
826 0
616 0
546 0
336 0
835 0
852 0
874 0
897 0
944 0
967 0
765 0
724 0
923 0
912 0
647 0
975 0
115 0
996 0
756 0
286 0
295 0
485 0
131 0
811 0
739 0
938 0
278 0
577 0
387 0
127 0
679 0
581 0
594 0
989 0
791 0
772 0
883 0
743 0
951 0
241 0
653 0
661 0
493 0
682 0
158 0
142 0
173 0
392 0
222 0
462 0
454 0
363 0
359 0
264 0
219 0
314 0
328 0
418 0
529 0
449 0
568 0
848 0
869 0
